5 
6 
6 
8 
8 
8 
10 
8 
9 
5 
2 
9 
8 
11 
9 
13 
8 
6 
10 
8 
12 
9 
9 
9 
8 
6 
6 
4 
7 
10 
8 
9 
5 
2 
5 
9 
10 
10 
4 
9 
7 
4 
3 
9 
6 
10 
13 
5 
7 
9 
7 
11 
14 
8 
9 
8 
9 
8 
5 
6 
8 
10 
11 
7 
5 
6 
6 
4 
8 
12 
9 
5 
6 
9 
10 
5 
3 
8 
8 
4 
7 
7 
6 
15 
7 
9 
10 
9 
7 
4 
14 
9 
10 
7 
7 
2 
11 
8 
10 
16 
